(set-option :produce-unsat-cores true)
(declare-const GEN1 Int)
(declare-const GEN2 Int)
(declare-const GEN3 Int)
(declare-const GEN4 Int)
(declare-const GEN5 Int)
(declare-const GEN6 Int)
(declare-const GEN7 Int)
(declare-const GEN8 Int)
(declare-const GEN9 Int)
(declare-const GEN10 Int)
(declare-const GEN11 Int)
(declare-const GEN12 Int)
(declare-const GEN13 Int)
(declare-const GEN14 Int)
(declare-const GEN15 Int)
(declare-const GEN16 Int)
(declare-const GEN17 Int)
(declare-const GEN18 Int)
(declare-const GEN19 Int)
(declare-const GEN20 Int)
(declare-const GEN21 Int)
(declare-const GEN22 Int)
(declare-const GEN23 Int)
(declare-const GEN24 Int)
(declare-const GEN25 Int)
(declare-const GEN26 Int)
(declare-const GEN27 Int)
(declare-const GEN28 Int)
(declare-const BAV29 Bool)
(declare-const BAV30 Bool)
(declare-const BAV31 Bool)
(declare-const BAV32 Bool)
(declare-const BAV33 Bool)
(declare-const BAV34 Bool)
(declare-const BAV35 Bool)
(declare-const BAV36 Bool)
(declare-const BAV37 Bool)
(declare-const BAV38 Bool)
(declare-const BAV39 Bool)
(declare-const BAV40 Bool)
(declare-const BAV41 Bool)
(declare-const BAV42 Bool)
(declare-const BAV43 Bool)
(declare-const BAV44 Bool)
(declare-const BAV45 Bool)
(declare-const BAV46 Bool)
(declare-const BAV47 Bool)
(declare-const BAV48 Bool)
(declare-const BAV49 Bool)
(declare-const BAV50 Bool)
(declare-const BAV51 Bool)
(declare-const BAV52 Bool)
(declare-const BAV53 Bool)
(declare-const BAV54 Bool)
(declare-const BAV55 Bool)
(declare-const BAV56 Bool)
(declare-const BAV57 Bool)
(declare-const BAV58 Bool)
(declare-const BAV59 Bool)
(declare-const BAV60 Bool)
(set-option :produce-models false)
(declare-const start25 Bool)
(declare-const bf07 Bool)
(declare-const bf19 Bool)
(declare-const lt06 Int)
(declare-const ef08 Int)
(declare-const ef110 Int)
(declare-fun whileM4 (Int) Int)
(assert start25)
(assert (=> start25 (distinct lt06 GEN1)))
(assert (=> start25 (= lt06 (whileM4 GEN2))))
(assert (=> (not bf07) (= ef08 GEN3)))
(assert (=> bf07 (= ef08 (whileM4 (+ GEN4 GEN5)))))
(assert (=> start25 (not (< (whileM4 GEN6) GEN7))))
(assert (=> start25 (= (whileM4 GEN8) ef08)))
(assert (=> start25 (and (=> bf07 (< GEN9 GEN10)) (=> (< GEN11 GEN12) bf07))))
(assert (=> (not bf19) (= ef110 (+ GEN13 GEN14))))
(assert (=> bf19 (= ef110 (whileM4 (+ (+ GEN15 GEN16) GEN17)))))
(assert (=> bf07 (not (< (whileM4 (+ GEN18 GEN19)) GEN20))))
(assert (=> bf07 (= (whileM4 (+ GEN21 GEN22)) ef110)))
(assert (=> bf07 (and (=> bf19 (< (+ GEN23 GEN24) GEN25)) (=> (< (+ GEN26 GEN27) GEN28) bf19))))
(check-sat (not bf19))
(assert (= BAV29 (=> start25 (distinct lt06 GEN1))))
(assert (= BAV30 (distinct lt06 GEN1)))
(assert (= BAV31 (=> start25 (= lt06 (whileM4 GEN2)))))
(assert (= BAV32 (= lt06 (whileM4 GEN2))))
(assert (= BAV33 (=> (not bf07) (= ef08 GEN3))))
(assert (= BAV34 (= ef08 GEN3)))
(assert (= BAV35 (=> bf07 (= ef08 (whileM4 (+ GEN4 GEN5))))))
(assert (= BAV36 (= ef08 (whileM4 (+ GEN4 GEN5)))))
(assert (= BAV37 (=> start25 (not (< (whileM4 GEN6) GEN7)))))
(assert (= BAV38 (< (whileM4 GEN6) GEN7)))
(assert (= BAV39 (=> start25 (= (whileM4 GEN8) ef08))))
(assert (= BAV40 (= (whileM4 GEN8) ef08)))
(assert (= BAV41 (=> start25 (and (=> bf07 (< GEN9 GEN10)) (=> (< GEN11 GEN12) bf07)))))
(assert (= BAV42 (and (=> bf07 (< GEN9 GEN10)) (=> (< GEN11 GEN12) bf07))))
(assert (= BAV43 (=> bf07 (< GEN9 GEN10))))
(assert (= BAV44 (< GEN9 GEN10)))
(assert (= BAV45 (=> (< GEN11 GEN12) bf07)))
(assert (= BAV46 (< GEN11 GEN12)))
(assert (= BAV47 (=> (not bf19) (= ef110 (+ GEN13 GEN14)))))
(assert (= BAV48 (= ef110 (+ GEN13 GEN14))))
(assert (= BAV49 (=> bf19 (= ef110 (whileM4 (+ (+ GEN15 GEN16) GEN17))))))
(assert (= BAV50 (= ef110 (whileM4 (+ (+ GEN15 GEN16) GEN17)))))
(assert (= BAV51 (=> bf07 (not (< (whileM4 (+ GEN18 GEN19)) GEN20)))))
(assert (= BAV52 (< (whileM4 (+ GEN18 GEN19)) GEN20)))
(assert (= BAV53 (=> bf07 (= (whileM4 (+ GEN21 GEN22)) ef110))))
(assert (= BAV54 (= (whileM4 (+ GEN21 GEN22)) ef110)))
(assert (= BAV55 (=> bf07 (and (=> bf19 (< (+ GEN23 GEN24) GEN25)) (=> (< (+ GEN26 GEN27) GEN28) bf19)))))
(assert (= BAV56 (and (=> bf19 (< (+ GEN23 GEN24) GEN25)) (=> (< (+ GEN26 GEN27) GEN28) bf19))))
(assert (= BAV57 (=> bf19 (< (+ GEN23 GEN24) GEN25))))
(assert (= BAV58 (< (+ GEN23 GEN24) GEN25)))
(assert (= BAV59 (=> (< (+ GEN26 GEN27) GEN28) bf19)))
(assert (= BAV60 (< (+ GEN26 GEN27) GEN28)))
(check-sat)